(declare-fun b137 () (_ FloatingPoint 11 53))
(declare-fun b333 () (_ FloatingPoint 8 24))
(declare-fun b338 () (_ FloatingPoint 8 24))
(declare-fun b95 () (_ FloatingPoint 11 53))
(declare-fun b63 () (_ FloatingPoint 8 24))
(declare-fun b104 () (_ FloatingPoint 11 53))
(declare-fun b367 () (_ FloatingPoint 8 24))
(declare-fun b72 () (_ FloatingPoint 8 24))
(declare-fun b120 () (_ FloatingPoint 11 53))
(declare-fun b219 () (_ FloatingPoint 8 24))
(declare-fun b321 () (_ FloatingPoint 8 24))
(declare-fun b357 () (_ FloatingPoint 8 24))
(declare-fun b222 () (_ FloatingPoint 8 24))
(declare-fun b323 () (_ FloatingPoint 8 24))
(declare-fun b328 () (_ FloatingPoint 8 24))
(declare-fun b82 () (_ FloatingPoint 11 53))
(declare-fun b347 () (_ FloatingPoint 8 24))
(declare-fun b154 () (_ FloatingPoint 11 53))
(declare-fun b362 () (_ FloatingPoint 8 24))
(declare-fun b316 () (_ FloatingPoint 8 24))
(declare-fun b65 () (_ FloatingPoint 8 24))
(declare-fun b352 () (_ FloatingPoint 8 24))
(assert (let ((.def_164 ((_ to_fp 11 53) RNE b347)))
(let ((.def_165 (fp.leq b95 .def_164)))
(let ((.def_166 (not .def_165)))
(let ((.def_10 (fp.mul RNE b63 b63)))
(let ((.def_11 (fp.neg .def_10)))
(let ((.def_12 (fp.mul RNE b63 .def_11)))
(let ((.def_13 ((_ to_fp 11 53) RNE .def_12)))
(let ((.def_15 (fp.div RNE .def_13 b82)))
(let ((.def_16 ((_ to_fp 8 24) RNE .def_15)))
(let ((.def_161 (fp.neg .def_16)))
(let ((.def_162 (= b367 .def_161)))
(let ((.def_158 (fp.leq b65 .def_16)))
(let ((.def_159 (not .def_158)))
(let ((.def_20 (fp.mul RNE .def_11 .def_16)))
(let ((.def_21 ((_ to_fp 11 53) RNE .def_20)))
(let ((.def_23 (fp.div RNE .def_21 b104)))
(let ((.def_24 ((_ to_fp 8 24) RNE .def_23)))
(let ((.def_154 (fp.neg .def_24)))
(let ((.def_155 (= b362 .def_154)))
(let ((.def_151 (fp.leq b65 .def_24)))
(let ((.def_152 (not .def_151)))
(let ((.def_28 (fp.mul RNE .def_11 .def_24)))
(let ((.def_29 ((_ to_fp 11 53) RNE .def_28)))
(let ((.def_31 (fp.div RNE .def_29 b120)))
(let ((.def_32 ((_ to_fp 8 24) RNE .def_31)))
(let ((.def_147 (fp.neg .def_32)))
(let ((.def_148 (= b357 .def_147)))
(let ((.def_144 (fp.leq b65 .def_32)))
(let ((.def_145 (not .def_144)))
(let ((.def_36 (fp.mul RNE .def_11 .def_32)))
(let ((.def_37 ((_ to_fp 11 53) RNE .def_36)))
(let ((.def_39 (fp.div RNE .def_37 b137)))
(let ((.def_40 ((_ to_fp 8 24) RNE .def_39)))
(let ((.def_140 (fp.neg .def_40)))
(let ((.def_141 (= b352 .def_140)))
(let ((.def_137 (fp.leq b65 .def_40)))
(let ((.def_138 (not .def_137)))
(let ((.def_44 (fp.mul RNE .def_11 .def_40)))
(let ((.def_45 ((_ to_fp 11 53) RNE .def_44)))
(let ((.def_47 (fp.div RNE .def_45 b154)))
(let ((.def_48 ((_ to_fp 8 24) RNE .def_47)))
(let ((.def_133 (fp.neg .def_48)))
(let ((.def_134 (= b347 .def_133)))
(let ((.def_130 (fp.leq b65 .def_48)))
(let ((.def_131 (not .def_130)))
(let ((.def_62 (fp.add RNE b63 .def_16)))
(let ((.def_127 (= b321 .def_62)))
(let ((.def_123 ((_ to_fp 11 53) RNE b367)))
(let ((.def_124 (fp.leq b95 .def_123)))
(let ((.def_125 (not .def_124)))
(let ((.def_63 (fp.add RNE .def_24 .def_62)))
(let ((.def_120 (= b338 .def_63)))
(let ((.def_116 ((_ to_fp 11 53) RNE b362)))
(let ((.def_117 (fp.leq b95 .def_116)))
(let ((.def_118 (not .def_117)))
(let ((.def_64 (fp.add RNE .def_32 .def_63)))
(let ((.def_113 (= b333 .def_64)))
(let ((.def_109 ((_ to_fp 11 53) RNE b357)))
(let ((.def_110 (fp.leq b95 .def_109)))
(let ((.def_111 (not .def_110)))
(let ((.def_106 (fp.leq b63 b222)))
(let ((.def_104 (fp.leq b219 b63)))
(let ((.def_101 (fp.leq b316 b222)))
(let ((.def_97 (fp.leq b323 b72)))
(let ((.def_98 (not .def_97)))
(let ((.def_65 (fp.add RNE .def_40 .def_64)))
(let ((.def_94 (= b328 .def_65)))
(let ((.def_89 ((_ to_fp 11 53) RNE b352)))
(let ((.def_91 (fp.leq b95 .def_89)))
(let ((.def_92 (not .def_91)))
(let ((.def_85 (fp.neg b321)))
(let ((.def_86 (= b323 .def_85)))
(let ((.def_82 (fp.leq b65 b321)))
(let ((.def_83 (not .def_82)))
(let ((.def_78 (fp.neg b63)))
(let ((.def_79 (= b316 .def_78)))
(let ((.def_76 (fp.leq b65 b63)))
(let ((.def_77 (not .def_76)))
(let ((.def_80 (and .def_77 .def_79)))
(let ((.def_73 (= b63 b316)))
(let ((.def_74 (not .def_73)))
(let ((.def_81 (and .def_74 .def_80)))
(let ((.def_84 (and .def_81 .def_83)))
(let ((.def_87 (and .def_84 .def_86)))
(let ((.def_70 (= b321 b323)))
(let ((.def_71 (not .def_70)))
(let ((.def_88 (and .def_71 .def_87)))
(let ((.def_93 (and .def_88 .def_92)))
(let ((.def_95 (and .def_93 .def_94)))
(let ((.def_99 (and .def_95 .def_98)))
(let ((.def_102 (and .def_99 .def_101)))
(let ((.def_105 (and .def_102 .def_104)))
(let ((.def_107 (and .def_105 .def_106)))
(let ((.def_66 (fp.add RNE .def_48 .def_65)))
(let ((.def_67 (= b328 .def_66)))
(let ((.def_68 (not .def_67)))
(let ((.def_108 (and .def_68 .def_107)))
(let ((.def_112 (and .def_108 .def_111)))
(let ((.def_114 (and .def_112 .def_113)))
(let ((.def_60 (= b333 b328)))
(let ((.def_61 (not .def_60)))
(let ((.def_115 (and .def_61 .def_114)))
(let ((.def_119 (and .def_115 .def_118)))
(let ((.def_121 (and .def_119 .def_120)))
(let ((.def_57 (= b338 b333)))
(let ((.def_58 (not .def_57)))
(let ((.def_122 (and .def_58 .def_121)))
(let ((.def_126 (and .def_122 .def_125)))
(let ((.def_128 (and .def_126 .def_127)))
(let ((.def_54 (= b321 b338)))
(let ((.def_55 (not .def_54)))
(let ((.def_129 (and .def_55 .def_128)))
(let ((.def_132 (and .def_129 .def_131)))
(let ((.def_135 (and .def_132 .def_134)))
(let ((.def_50 (= .def_48 b347)))
(let ((.def_51 (not .def_50)))
(let ((.def_136 (and .def_51 .def_135)))
(let ((.def_139 (and .def_136 .def_138)))
(let ((.def_142 (and .def_139 .def_141)))
(let ((.def_42 (= .def_40 b352)))
(let ((.def_43 (not .def_42)))
(let ((.def_143 (and .def_43 .def_142)))
(let ((.def_146 (and .def_143 .def_145)))
(let ((.def_149 (and .def_146 .def_148)))
(let ((.def_34 (= .def_32 b357)))
(let ((.def_35 (not .def_34)))
(let ((.def_150 (and .def_35 .def_149)))
(let ((.def_153 (and .def_150 .def_152)))
(let ((.def_156 (and .def_153 .def_155)))
(let ((.def_26 (= .def_24 b362)))
(let ((.def_27 (not .def_26)))
(let ((.def_157 (and .def_27 .def_156)))
(let ((.def_160 (and .def_157 .def_159)))
(let ((.def_163 (and .def_160 .def_162)))
(let ((.def_167 (and .def_163 .def_166)))
(let ((.def_18 (= .def_16 b367)))
(let ((.def_19 (not .def_18)))
(let ((.def_168 (and .def_19 .def_167)))
.def_168)))))))))))))))))))))))))))))))))))))))))))))))))))))))))))))))))))))))))))))))))))))))))))))))))))))))))))))))))))))))))))))))))))))))))))
(check-sat)
